phase2/problem_log/problem929.sol
# Solution for model Resale_Solver
# Objective value = 43
list[0] 0
list[1] 1
list[2] 0
list[3] 0
list[4] 0
list[5] 1
list[6] 1
list[7] 0
list[8] 0
indicator[0] 0
indicator[1] 1
indicator[2] 0
indicator[3] 0
indicator[4] 0
indicator[5] 1
indicator[6] 1
indicator[7] 0
indicator[8] 0
